models/minizinc/049_set_partition.fzn
% Generated by MiniZinc 2.9.3
% Solver library: /opt/homebrew/Cellar/minizinc/2.9.3/share/minizinc/gecode_presolver
% Command line invocation: minizinc --solver org.gecode --compile 049_set_partition.mzn 

predicate gecode_array_set_partition(array [int] of var set of int: S,set of int: universe);
array [1..17] of int: X_INTRODUCED_87_ = [1,-1,-2,-3,-4,-5,-6,-7,-8,-9,-10,-11,-12,-13,-14,-15,-16];
array [1..17] of int: X_INTRODUCED_106_ = [1,-1,-4,-9,-16,-25,-36,-49,-64,-81,-100,-121,-144,-169,-196,-225,-256];
var set of 1..16: X_INTRODUCED_16_;
var set of 1..16: X_INTRODUCED_17_;
var 0..136: X_INTRODUCED_18_:: is_defined_var;
var 0..1496: X_INTRODUCED_20_:: is_defined_var;
var bool: X_INTRODUCED_24_ ::var_is_introduced :: is_defined_var;
var 0..1: X_INTRODUCED_25_ ::var_is_introduced :: is_defined_var;
var bool: X_INTRODUCED_28_ ::var_is_introduced :: is_defined_var;
var 0..1: X_INTRODUCED_29_ ::var_is_introduced :: is_defined_var;
var bool: X_INTRODUCED_32_ ::var_is_introduced :: is_defined_var;
var 0..1: X_INTRODUCED_33_ ::var_is_introduced :: is_defined_var;
var bool: X_INTRODUCED_36_ ::var_is_introduced :: is_defined_var;
var 0..1: X_INTRODUCED_37_ ::var_is_introduced :: is_defined_var;
var bool: X_INTRODUCED_40_ ::var_is_introduced :: is_defined_var;
var 0..1: X_INTRODUCED_41_ ::var_is_introduced :: is_defined_var;
var bool: X_INTRODUCED_44_ ::var_is_introduced :: is_defined_var;
var 0..1: X_INTRODUCED_45_ ::var_is_introduced :: is_defined_var;
var bool: X_INTRODUCED_48_ ::var_is_introduced :: is_defined_var;
var 0..1: X_INTRODUCED_49_ ::var_is_introduced :: is_defined_var;
var bool: X_INTRODUCED_52_ ::var_is_introduced :: is_defined_var;
var 0..1: X_INTRODUCED_53_ ::var_is_introduced :: is_defined_var;
var bool: X_INTRODUCED_56_ ::var_is_introduced :: is_defined_var;
var 0..1: X_INTRODUCED_57_ ::var_is_introduced :: is_defined_var;
var bool: X_INTRODUCED_60_ ::var_is_introduced :: is_defined_var;
var 0..1: X_INTRODUCED_61_ ::var_is_introduced :: is_defined_var;
var bool: X_INTRODUCED_64_ ::var_is_introduced :: is_defined_var;
var 0..1: X_INTRODUCED_65_ ::var_is_introduced :: is_defined_var;
var bool: X_INTRODUCED_68_ ::var_is_introduced :: is_defined_var;
var 0..1: X_INTRODUCED_69_ ::var_is_introduced :: is_defined_var;
var bool: X_INTRODUCED_72_ ::var_is_introduced :: is_defined_var;
var 0..1: X_INTRODUCED_73_ ::var_is_introduced :: is_defined_var;
var bool: X_INTRODUCED_76_ ::var_is_introduced :: is_defined_var;
var 0..1: X_INTRODUCED_77_ ::var_is_introduced :: is_defined_var;
var bool: X_INTRODUCED_80_ ::var_is_introduced :: is_defined_var;
var 0..1: X_INTRODUCED_81_ ::var_is_introduced :: is_defined_var;
var bool: X_INTRODUCED_107_ ::var_is_introduced :: is_defined_var;
var 0..1: X_INTRODUCED_108_ ::var_is_introduced :: is_defined_var;
var bool: X_INTRODUCED_109_ ::var_is_introduced :: is_defined_var;
var 0..1: X_INTRODUCED_110_ ::var_is_introduced :: is_defined_var;
var bool: X_INTRODUCED_112_ ::var_is_introduced :: is_defined_var;
var 0..1: X_INTRODUCED_113_ ::var_is_introduced :: is_defined_var;
var bool: X_INTRODUCED_115_ ::var_is_introduced :: is_defined_var;
var 0..1: X_INTRODUCED_116_ ::var_is_introduced :: is_defined_var;
var bool: X_INTRODUCED_118_ ::var_is_introduced :: is_defined_var;
var 0..1: X_INTRODUCED_119_ ::var_is_introduced :: is_defined_var;
var bool: X_INTRODUCED_121_ ::var_is_introduced :: is_defined_var;
var 0..1: X_INTRODUCED_122_ ::var_is_introduced :: is_defined_var;
var bool: X_INTRODUCED_124_ ::var_is_introduced :: is_defined_var;
var 0..1: X_INTRODUCED_125_ ::var_is_introduced :: is_defined_var;
var bool: X_INTRODUCED_127_ ::var_is_introduced :: is_defined_var;
var 0..1: X_INTRODUCED_128_ ::var_is_introduced :: is_defined_var;
var bool: X_INTRODUCED_130_ ::var_is_introduced :: is_defined_var;
var 0..1: X_INTRODUCED_131_ ::var_is_introduced :: is_defined_var;
var bool: X_INTRODUCED_133_ ::var_is_introduced :: is_defined_var;
var 0..1: X_INTRODUCED_134_ ::var_is_introduced :: is_defined_var;
var bool: X_INTRODUCED_136_ ::var_is_introduced :: is_defined_var;
var 0..1: X_INTRODUCED_137_ ::var_is_introduced :: is_defined_var;
var bool: X_INTRODUCED_139_ ::var_is_introduced :: is_defined_var;
var 0..1: X_INTRODUCED_140_ ::var_is_introduced :: is_defined_var;
var bool: X_INTRODUCED_142_ ::var_is_introduced :: is_defined_var;
var 0..1: X_INTRODUCED_143_ ::var_is_introduced :: is_defined_var;
var bool: X_INTRODUCED_145_ ::var_is_introduced :: is_defined_var;
var 0..1: X_INTRODUCED_146_ ::var_is_introduced :: is_defined_var;
var bool: X_INTRODUCED_148_ ::var_is_introduced :: is_defined_var;
var 0..1: X_INTRODUCED_149_ ::var_is_introduced :: is_defined_var;
var bool: X_INTRODUCED_151_ ::var_is_introduced :: is_defined_var;
var 0..1: X_INTRODUCED_152_ ::var_is_introduced :: is_defined_var;
var 1..16: X_INTRODUCED_176_ ::var_is_introduced ;
array [1..2] of var set of int: a:: output_array([1..2]) = [X_INTRODUCED_16_,X_INTRODUCED_17_];
array [1..2] of var int: sums:: output_array([1..2]) = [X_INTRODUCED_18_,X_INTRODUCED_18_];
array [1..2] of var int: sum_squared:: output_array([1..2]) = [X_INTRODUCED_20_,X_INTRODUCED_20_];
array [1..17] of var int: X_INTRODUCED_156_ ::var_is_introduced  = [X_INTRODUCED_18_,X_INTRODUCED_108_,X_INTRODUCED_110_,X_INTRODUCED_113_,X_INTRODUCED_116_,X_INTRODUCED_119_,X_INTRODUCED_122_,X_INTRODUCED_125_,X_INTRODUCED_128_,X_INTRODUCED_131_,X_INTRODUCED_134_,X_INTRODUCED_137_,X_INTRODUCED_140_,X_INTRODUCED_143_,X_INTRODUCED_146_,X_INTRODUCED_149_,X_INTRODUCED_152_];
array [1..17] of var int: X_INTRODUCED_174_ ::var_is_introduced  = [X_INTRODUCED_20_,X_INTRODUCED_108_,X_INTRODUCED_110_,X_INTRODUCED_113_,X_INTRODUCED_116_,X_INTRODUCED_119_,X_INTRODUCED_122_,X_INTRODUCED_125_,X_INTRODUCED_128_,X_INTRODUCED_131_,X_INTRODUCED_134_,X_INTRODUCED_137_,X_INTRODUCED_140_,X_INTRODUCED_143_,X_INTRODUCED_146_,X_INTRODUCED_149_,X_INTRODUCED_152_];
constraint gecode_array_set_partition(a,1..16);
constraint int_lin_eq([1,-2,-3,-4,-5,-6,-7,-8,-9,-10,-11,-12,-13,-14,-15,-16],[X_INTRODUCED_18_,X_INTRODUCED_25_,X_INTRODUCED_29_,X_INTRODUCED_33_,X_INTRODUCED_37_,X_INTRODUCED_41_,X_INTRODUCED_45_,X_INTRODUCED_49_,X_INTRODUCED_53_,X_INTRODUCED_57_,X_INTRODUCED_61_,X_INTRODUCED_65_,X_INTRODUCED_69_,X_INTRODUCED_73_,X_INTRODUCED_77_,X_INTRODUCED_81_],1):: defines_var(X_INTRODUCED_18_);
constraint int_lin_eq([1,-4,-9,-16,-25,-36,-49,-64,-81,-100,-121,-144,-169,-196,-225,-256],[X_INTRODUCED_20_,X_INTRODUCED_25_,X_INTRODUCED_29_,X_INTRODUCED_33_,X_INTRODUCED_37_,X_INTRODUCED_41_,X_INTRODUCED_45_,X_INTRODUCED_49_,X_INTRODUCED_53_,X_INTRODUCED_57_,X_INTRODUCED_61_,X_INTRODUCED_65_,X_INTRODUCED_69_,X_INTRODUCED_73_,X_INTRODUCED_77_,X_INTRODUCED_81_],1):: defines_var(X_INTRODUCED_20_);
constraint int_lin_eq(X_INTRODUCED_87_,X_INTRODUCED_156_,0);
constraint int_lin_eq(X_INTRODUCED_106_,X_INTRODUCED_174_,0);
constraint set_card(X_INTRODUCED_17_,X_INTRODUCED_176_);
constraint set_card(X_INTRODUCED_16_,X_INTRODUCED_176_);
constraint set_in(1,X_INTRODUCED_16_);
constraint set_in_reif(2,X_INTRODUCED_16_,X_INTRODUCED_24_):: defines_var(X_INTRODUCED_24_);
constraint bool2int(X_INTRODUCED_24_,X_INTRODUCED_25_):: defines_var(X_INTRODUCED_25_);
constraint set_in_reif(3,X_INTRODUCED_16_,X_INTRODUCED_28_):: defines_var(X_INTRODUCED_28_);
constraint bool2int(X_INTRODUCED_28_,X_INTRODUCED_29_):: defines_var(X_INTRODUCED_29_);
constraint set_in_reif(4,X_INTRODUCED_16_,X_INTRODUCED_32_):: defines_var(X_INTRODUCED_32_);
constraint bool2int(X_INTRODUCED_32_,X_INTRODUCED_33_):: defines_var(X_INTRODUCED_33_);
constraint set_in_reif(5,X_INTRODUCED_16_,X_INTRODUCED_36_):: defines_var(X_INTRODUCED_36_);
constraint bool2int(X_INTRODUCED_36_,X_INTRODUCED_37_):: defines_var(X_INTRODUCED_37_);
constraint set_in_reif(6,X_INTRODUCED_16_,X_INTRODUCED_40_):: defines_var(X_INTRODUCED_40_);
constraint bool2int(X_INTRODUCED_40_,X_INTRODUCED_41_):: defines_var(X_INTRODUCED_41_);
constraint set_in_reif(7,X_INTRODUCED_16_,X_INTRODUCED_44_):: defines_var(X_INTRODUCED_44_);
constraint bool2int(X_INTRODUCED_44_,X_INTRODUCED_45_):: defines_var(X_INTRODUCED_45_);
constraint set_in_reif(8,X_INTRODUCED_16_,X_INTRODUCED_48_):: defines_var(X_INTRODUCED_48_);
constraint bool2int(X_INTRODUCED_48_,X_INTRODUCED_49_):: defines_var(X_INTRODUCED_49_);
constraint set_in_reif(9,X_INTRODUCED_16_,X_INTRODUCED_52_):: defines_var(X_INTRODUCED_52_);
constraint bool2int(X_INTRODUCED_52_,X_INTRODUCED_53_):: defines_var(X_INTRODUCED_53_);
constraint set_in_reif(10,X_INTRODUCED_16_,X_INTRODUCED_56_):: defines_var(X_INTRODUCED_56_);
constraint bool2int(X_INTRODUCED_56_,X_INTRODUCED_57_):: defines_var(X_INTRODUCED_57_);
constraint set_in_reif(11,X_INTRODUCED_16_,X_INTRODUCED_60_):: defines_var(X_INTRODUCED_60_);
constraint bool2int(X_INTRODUCED_60_,X_INTRODUCED_61_):: defines_var(X_INTRODUCED_61_);
constraint set_in_reif(12,X_INTRODUCED_16_,X_INTRODUCED_64_):: defines_var(X_INTRODUCED_64_);
constraint bool2int(X_INTRODUCED_64_,X_INTRODUCED_65_):: defines_var(X_INTRODUCED_65_);
constraint set_in_reif(13,X_INTRODUCED_16_,X_INTRODUCED_68_):: defines_var(X_INTRODUCED_68_);
constraint bool2int(X_INTRODUCED_68_,X_INTRODUCED_69_):: defines_var(X_INTRODUCED_69_);
constraint set_in_reif(14,X_INTRODUCED_16_,X_INTRODUCED_72_):: defines_var(X_INTRODUCED_72_);
constraint bool2int(X_INTRODUCED_72_,X_INTRODUCED_73_):: defines_var(X_INTRODUCED_73_);
constraint set_in_reif(15,X_INTRODUCED_16_,X_INTRODUCED_76_):: defines_var(X_INTRODUCED_76_);
constraint bool2int(X_INTRODUCED_76_,X_INTRODUCED_77_):: defines_var(X_INTRODUCED_77_);
constraint set_in_reif(16,X_INTRODUCED_16_,X_INTRODUCED_80_):: defines_var(X_INTRODUCED_80_);
constraint bool2int(X_INTRODUCED_80_,X_INTRODUCED_81_):: defines_var(X_INTRODUCED_81_);
constraint set_in_reif(1,X_INTRODUCED_17_,X_INTRODUCED_107_):: defines_var(X_INTRODUCED_107_);
constraint bool2int(X_INTRODUCED_107_,X_INTRODUCED_108_):: defines_var(X_INTRODUCED_108_);
constraint set_in_reif(2,X_INTRODUCED_17_,X_INTRODUCED_109_):: defines_var(X_INTRODUCED_109_);
constraint bool2int(X_INTRODUCED_109_,X_INTRODUCED_110_):: defines_var(X_INTRODUCED_110_);
constraint set_in_reif(3,X_INTRODUCED_17_,X_INTRODUCED_112_):: defines_var(X_INTRODUCED_112_);
constraint bool2int(X_INTRODUCED_112_,X_INTRODUCED_113_):: defines_var(X_INTRODUCED_113_);
constraint set_in_reif(4,X_INTRODUCED_17_,X_INTRODUCED_115_):: defines_var(X_INTRODUCED_115_);
constraint bool2int(X_INTRODUCED_115_,X_INTRODUCED_116_):: defines_var(X_INTRODUCED_116_);
constraint set_in_reif(5,X_INTRODUCED_17_,X_INTRODUCED_118_):: defines_var(X_INTRODUCED_118_);
constraint bool2int(X_INTRODUCED_118_,X_INTRODUCED_119_):: defines_var(X_INTRODUCED_119_);
constraint set_in_reif(6,X_INTRODUCED_17_,X_INTRODUCED_121_):: defines_var(X_INTRODUCED_121_);
constraint bool2int(X_INTRODUCED_121_,X_INTRODUCED_122_):: defines_var(X_INTRODUCED_122_);
constraint set_in_reif(7,X_INTRODUCED_17_,X_INTRODUCED_124_):: defines_var(X_INTRODUCED_124_);
constraint bool2int(X_INTRODUCED_124_,X_INTRODUCED_125_):: defines_var(X_INTRODUCED_125_);
constraint set_in_reif(8,X_INTRODUCED_17_,X_INTRODUCED_127_):: defines_var(X_INTRODUCED_127_);
constraint bool2int(X_INTRODUCED_127_,X_INTRODUCED_128_):: defines_var(X_INTRODUCED_128_);
constraint set_in_reif(9,X_INTRODUCED_17_,X_INTRODUCED_130_):: defines_var(X_INTRODUCED_130_);
constraint bool2int(X_INTRODUCED_130_,X_INTRODUCED_131_):: defines_var(X_INTRODUCED_131_);
constraint set_in_reif(10,X_INTRODUCED_17_,X_INTRODUCED_133_):: defines_var(X_INTRODUCED_133_);
constraint bool2int(X_INTRODUCED_133_,X_INTRODUCED_134_):: defines_var(X_INTRODUCED_134_);
constraint set_in_reif(11,X_INTRODUCED_17_,X_INTRODUCED_136_):: defines_var(X_INTRODUCED_136_);
constraint bool2int(X_INTRODUCED_136_,X_INTRODUCED_137_):: defines_var(X_INTRODUCED_137_);
constraint set_in_reif(12,X_INTRODUCED_17_,X_INTRODUCED_139_):: defines_var(X_INTRODUCED_139_);
constraint bool2int(X_INTRODUCED_139_,X_INTRODUCED_140_):: defines_var(X_INTRODUCED_140_);
constraint set_in_reif(13,X_INTRODUCED_17_,X_INTRODUCED_142_):: defines_var(X_INTRODUCED_142_);
constraint bool2int(X_INTRODUCED_142_,X_INTRODUCED_143_):: defines_var(X_INTRODUCED_143_);
constraint set_in_reif(14,X_INTRODUCED_17_,X_INTRODUCED_145_):: defines_var(X_INTRODUCED_145_);
constraint bool2int(X_INTRODUCED_145_,X_INTRODUCED_146_):: defines_var(X_INTRODUCED_146_);
constraint set_in_reif(15,X_INTRODUCED_17_,X_INTRODUCED_148_):: defines_var(X_INTRODUCED_148_);
constraint bool2int(X_INTRODUCED_148_,X_INTRODUCED_149_):: defines_var(X_INTRODUCED_149_);
constraint set_in_reif(16,X_INTRODUCED_17_,X_INTRODUCED_151_):: defines_var(X_INTRODUCED_151_);
constraint bool2int(X_INTRODUCED_151_,X_INTRODUCED_152_):: defines_var(X_INTRODUCED_152_);
solve :: set_search(a,first_fail,indomain_min,complete) satisfy;
